c qbfgen params: ./generators/blocksqbf/blocksqbf -c 10 -b 2 -bs 2 -bs 7 -bc 1 -bc 3
c time: Fri Oct  5 19:41:53 2012
c seed = 3898950578
c sort clauses = no
c dup. resolve limit = 100
c verbosity = 0
c num blocks = 2
c num clauses = 10
c block_sizes[0] = 2
c block_sizes[1] = 7
c num vars = 9
c perblock_nums[0] = 1
c perblock_nums[1] = 3
c clause len = 4
c minblockids[0] = 1
c maxblockids[0] = 2
c minblockids[1] = 3
c maxblockids[1] = 9
p cnf 9 10
a 1 2 0
e 3 4 5 6 7 8 9 0
-2 7 -8 -6 0
1 -8 6 -4 0
1 -4 -3 -6 0
-1 8 -3 7 0
2 -4 -3 5 0
1 9 4 -7 0
-1 9 7 6 0
-2 -5 -8 -9 0
1 -6 7 -8 0
-1 -6 -7 -3 0
